\ Model sp_11_10
\ LP format - for model browsing. Use MPS format to capture full model detail.
\ Signature: 0xb050d3b5baabe1c8
Minimize
  49.09 y[0,2] + 18.11 y[0,3] + 22.02 y[0,4] + 24.76 y[0,5] + 50.99 y[0,6]
   + 46.39 y[0,7] + 52.2 y[0,9] + 40.8 y[0,10] + 35.85 y[1,2] + 58 y[1,5]
   + 48.84 y[1,6] + 66.1 y[1,7] + 43.93 y[1,9] + 49.09 y[2,0]
   + 35.85 y[2,1] + 43.93 y[2,3] + 51.62 y[2,4] + 25.63 y[2,5]
   + 19.24 y[2,6] + 50.7 y[2,7] + 61.1 y[2,8] + 15 y[2,9] + 62.36 y[2,10]
   + 18.11 y[3,0] + 43.93 y[3,2] + 38.48 y[3,4] + 19 y[3,5] + 52.61 y[3,6]
   + 28.28 y[3,7] + 52.09 y[3,9] + 57.25 y[3,10] + 22.02 y[4,0]
   + 51.62 y[4,2] + 38.48 y[4,3] + 35.13 y[4,5] + 45 y[4,6] + 66.1 y[4,7]
   + 50.7 y[4,8] + 48.17 y[4,9] + 18.87 y[4,10] + 24.76 y[5,0] + 58 y[5,1]
   + 25.63 y[5,2] + 19 y[5,3] + 35.13 y[5,4] + 33.96 y[5,6] + 36.24 y[5,7]
   + 33.14 y[5,9] + 51.48 y[5,10] + 50.99 y[6,0] + 48.84 y[6,1]
   + 19.24 y[6,2] + 52.61 y[6,3] + 45 y[6,4] + 33.96 y[6,5] + 42.06 y[6,8]
   + 5 y[6,9] + 50.25 y[6,10] + 46.39 y[7,0] + 66.1 y[7,1] + 50.7 y[7,2]
   + 28.28 y[7,3] + 66.1 y[7,4] + 36.24 y[7,5] + 64.01 y[7,9] + 61.1 y[8,2]
   + 50.7 y[8,4] + 42.06 y[8,6] + 46.84 y[8,9] + 39.12 y[8,10]
   + 52.2 y[9,0] + 43.93 y[9,1] + 15 y[9,2] + 52.09 y[9,3] + 48.17 y[9,4]
   + 33.14 y[9,5] + 5 y[9,6] + 64.01 y[9,7] + 46.84 y[9,8] + 54.59 y[9,10]
   + 40.8 y[10,0] + 62.36 y[10,2] + 57.25 y[10,3] + 18.87 y[10,4]
   + 51.48 y[10,5] + 50.25 y[10,6] + 39.12 y[10,8] + 54.59 y[10,9]
   + 4.909 r[0,2] + 1.811 r[0,3] + 2.202 r[0,4] + 2.476 r[0,5]
   + 5.099 r[0,6] + 4.639 r[0,7] + 5.22 r[0,9] + 4.08 r[0,10]
   + 3.585 r[1,2] + 5.8 r[1,5] + 4.884 r[1,6] + 6.61 r[1,7] + 4.393 r[1,9]
   + 4.909 r[2,0] + 3.585 r[2,1] + 4.393 r[2,3] + 5.162 r[2,4]
   + 2.563 r[2,5] + 1.924 r[2,6] + 5.07 r[2,7] + 6.11 r[2,8] + 1.5 r[2,9]
   + 6.236 r[2,10] + 1.811 r[3,0] + 4.393 r[3,2] + 3.848 r[3,4]
   + 1.9 r[3,5] + 5.261 r[3,6] + 2.828 r[3,7] + 5.209 r[3,9]
   + 5.725 r[3,10] + 2.202 r[4,0] + 5.162 r[4,2] + 3.848 r[4,3]
   + 3.513 r[4,5] + 4.5 r[4,6] + 6.61 r[4,7] + 5.07 r[4,8] + 4.817 r[4,9]
   + 1.887 r[4,10] + 2.476 r[5,0] + 5.8 r[5,1] + 2.563 r[5,2] + 1.9 r[5,3]
   + 3.513 r[5,4] + 3.396 r[5,6] + 3.624 r[5,7] + 3.314 r[5,9]
   + 5.148 r[5,10] + 5.099 r[6,0] + 4.884 r[6,1] + 1.924 r[6,2]
   + 5.261 r[6,3] + 4.5 r[6,4] + 3.396 r[6,5] + 4.206 r[6,8] + 0.5 r[6,9]
   + 5.025 r[6,10] + 4.639 r[7,0] + 6.61 r[7,1] + 5.07 r[7,2]
   + 2.828 r[7,3] + 6.61 r[7,4] + 3.624 r[7,5] + 6.401 r[7,9] + 6.11 r[8,2]
   + 5.07 r[8,4] + 4.206 r[8,6] + 4.684 r[8,9] + 3.912 r[8,10]
   + 5.22 r[9,0] + 4.393 r[9,1] + 1.5 r[9,2] + 5.209 r[9,3] + 4.817 r[9,4]
   + 3.314 r[9,5] + 0.5 r[9,6] + 6.401 r[9,7] + 4.684 r[9,8]
   + 5.459 r[9,10] + 4.08 r[10,0] + 6.236 r[10,2] + 5.725 r[10,3]
   + 1.887 r[10,4] + 5.148 r[10,5] + 5.025 r[10,6] + 3.912 r[10,8]
   + 5.459 r[10,9]
Subject To
 flow_cons_inner_nodes[0]: - y[0,2] - y[0,3] - y[0,4] - y[0,5] - y[0,6]
   - y[0,7] - y[0,9] - y[0,10] + y[2,0] + y[3,0] + y[4,0] + y[5,0] + y[6,0]
   + y[7,0] + y[9,0] + y[10,0] = 0
 flow_cons_inner_nodes[1]: - y[1,2] - y[1,5] - y[1,6] - y[1,7] - y[1,9]
   + y[2,1] + y[5,1] + y[6,1] + y[7,1] + y[9,1] = 0
 flow_cons_inner_nodes[2]: y[0,2] + y[1,2] - y[2,0] - y[2,1] - y[2,3]
   - y[2,4] - y[2,5] - y[2,6] - y[2,7] - y[2,8] - y[2,9] - y[2,10] + y[3,2]
   + y[4,2] + y[5,2] + y[6,2] + y[7,2] + y[8,2] + y[9,2] + y[10,2] = 0
 flow_cons_inner_nodes[3]: y[0,3] + y[2,3] - y[3,0] - y[3,2] - y[3,4]
   - y[3,5] - y[3,6] - y[3,7] - y[3,9] - y[3,10] + y[4,3] + y[5,3] + y[6,3]
   + y[7,3] + y[9,3] + y[10,3] = 0
 flow_cons_inner_nodes[4]: y[0,4] + y[2,4] + y[3,4] - y[4,0] - y[4,2]
   - y[4,3] - y[4,5] - y[4,6] - y[4,7] - y[4,8] - y[4,9] - y[4,10] + y[5,4]
   + y[6,4] + y[7,4] + y[8,4] + y[9,4] + y[10,4] = 0
 flow_cons_inner_nodes[5]: y[0,5] + y[1,5] + y[2,5] + y[3,5] + y[4,5]
   - y[5,0] - y[5,1] - y[5,2] - y[5,3] - y[5,4] - y[5,6] - y[5,7] - y[5,9]
   - y[5,10] + y[6,5] + y[7,5] + y[9,5] + y[10,5] = 0
 flow_cons_inner_nodes[6]: y[0,6] + y[1,6] + y[2,6] + y[3,6] + y[4,6]
   + y[5,6] - y[6,0] - y[6,1] - y[6,2] - y[6,3] - y[6,4] - y[6,5] - y[6,8]
   - y[6,9] - y[6,10] + y[8,6] + y[9,6] + y[10,6] = 0
 flow_cons_inner_nodes[9]: y[0,9] + y[1,9] + y[2,9] + y[3,9] + y[4,9]
   + y[5,9] + y[6,9] + y[7,9] + y[8,9] - y[9,0] - y[9,1] - y[9,2] - y[9,3]
   - y[9,4] - y[9,5] - y[9,6] - y[9,7] - y[9,8] - y[9,10] + y[10,9] = 0
 flow_cons_inner_nodes[10]: y[0,10] + y[2,10] + y[3,10] + y[4,10] + y[5,10]
   + y[6,10] + y[8,10] + y[9,10] - y[10,0] - y[10,2] - y[10,3] - y[10,4]
   - y[10,5] - y[10,6] - y[10,8] - y[10,9] = 0
 flow_cons_source: - y[0,7] - y[1,7] - y[2,7] - y[3,7] - y[4,7] - y[5,7]
   + y[7,0] + y[7,1] + y[7,2] + y[7,3] + y[7,4] + y[7,5] + y[7,9] - y[9,7]
   = 1
 flow_cons_target: y[2,8] + y[4,8] + y[6,8] - y[8,2] - y[8,4] - y[8,6]
   - y[8,9] - y[8,10] + y[9,8] + y[10,8] = 1
 primal_lower: - 3.8 y[0,2] - 0.12 y[0,3] - 0.97 y[0,4] - 2.85 y[0,5]
   - 0.45 y[0,6] - 2.86 y[0,7] - 0.25 y[0,9] - 4.43 y[0,10] - 4.52 y[1,2]
   - 2.4 y[1,5] - 2.94 y[1,6] - 3.53 y[1,7] - 3.53 y[1,9] - 1.93 y[2,0]
   - 3.55 y[2,1] - 1.95 y[2,3] - 4.27 y[2,4] - 3.15 y[2,5] - 1.7 y[2,6]
   - 3.96 y[2,7] - 1.76 y[2,8] - 0.44 y[2,9] - 1.5 y[2,10] - 1.92 y[3,0]
   - 3.42 y[3,2] - 3.04 y[3,4] - 0.93 y[3,5] - 3.73 y[3,6] - 3.63 y[3,7]
   - 1.82 y[3,9] - 2.36 y[3,10] - 3.67 y[4,0] - 2.05 y[4,2] - 3.43 y[4,3]
   - 0.36 y[4,5] - 2.25 y[4,6] - 2 y[4,7] - 1.14 y[4,8] - 3.98 y[4,9]
   - 0.09 y[4,10] - 2.08 y[5,0] - 0.22 y[5,1] - 2.3 y[5,2] - 3.96 y[5,3]
   - 1.54 y[5,4] - 4.16 y[5,6] - 0.57 y[5,7] - 0.73 y[5,9] - 3.63 y[5,10]
   - 3.07 y[6,0] - 3.32 y[6,1] - 2.49 y[6,2] - 2.18 y[6,3] - 4.16 y[6,4]
   - 1.73 y[6,5] - 2.44 y[6,8] - 3.2 y[6,9] - 1.96 y[6,10] - 2.95 y[7,0]
   - 2.74 y[7,1] - 2.1 y[7,2] - 4.23 y[7,3] - 3.43 y[7,4] - 4.29 y[7,5]
   - 4.11 y[7,9] - 1.48 y[8,2] - 3.18 y[8,4] - 0.27 y[8,6] - 0.93 y[8,9]
   - 3.34 y[8,10] - 3.47 y[9,0] - 1.36 y[9,1] - 4.42 y[9,2] - 0.02 y[9,3]
   - 1.61 y[9,4] - 0.91 y[9,5] - 2.02 y[9,6] - 4.29 y[9,7] - 1.29 y[9,8]
   - 1.97 y[9,10] - 2.15 y[10,0] - 3.95 y[10,2] - 4.54 y[10,3]
   - 2.2 y[10,4] - 2.48 y[10,5] - 3.61 y[10,6] - 3.76 y[10,8]
   - 0.67 y[10,9] + 25 u[0,2] + 39 u[0,3] + 77 u[0,4] + 60 u[0,5]
   + 15 u[0,6] + 85 u[0,7] + 72 u[0,9] + 89 u[0,10] + 69 u[1,2] + 23 u[1,5]
   + 51 u[1,6] + 18 u[1,7] + 42 u[1,9] + 11 u[2,0] + 37 u[2,1] + 9 u[2,3]
   + 22 u[2,4] + 92 u[2,5] + 15 u[2,6] + 52 u[2,7] + 97 u[2,8] + 96 u[2,9]
   + 64 u[2,10] + 56 u[3,0] + 69 u[3,2] + 68 u[3,4] + 89 u[3,5] + 91 u[3,6]
   + 66 u[3,7] + 60 u[3,9] + 90 u[3,10] + 25 u[4,0] + 30 u[4,2] + 83 u[4,3]
   + 57 u[4,5] + 83 u[4,6] + 66 u[4,7] + 56 u[4,8] + 59 u[4,9] + 91 u[4,10]
   + 50 u[5,0] + 75 u[5,1] + 17 u[5,2] + 16 u[5,3] + 21 u[5,4] + 65 u[5,6]
   + 32 u[5,7] + u[5,9] + 58 u[5,10] + 58 u[6,0] + 57 u[6,1] + 92 u[6,2]
   + 75 u[6,3] + u[6,4] + u[6,5] + 65 u[6,8] + 71 u[6,9] + 75 u[6,10]
   + 96 u[7,0] + 46 u[7,1] + 19 u[7,2] + 74 u[7,3] + 61 u[7,4] + 77 u[7,5]
   + 49 u[7,9] + 53 u[8,2] + 82 u[8,4] + 24 u[8,6] + 53 u[8,9] + 49 u[8,10]
   + 6 u[9,0] + 14 u[9,1] + 45 u[9,2] + 46 u[9,3] + 22 u[9,4] + 44 u[9,5]
   + 93 u[9,6] + 68 u[9,7] + 8 u[9,8] + 5 u[9,10] + 24 u[10,0] + 85 u[10,2]
   + 47 u[10,3] + 23 u[10,4] + 51 u[10,5] + 23 u[10,6] + 47 u[10,8]
   + 12 u[10,9] <= 406
 mccormick1[0,2]: - u[0,2] + r[0,2] <= 0
 mccormick1[0,3]: - u[0,3] + r[0,3] <= 0
 mccormick1[0,4]: - u[0,4] + r[0,4] <= 0
 mccormick1[0,5]: - u[0,5] + r[0,5] <= 0
 mccormick1[0,6]: - u[0,6] + r[0,6] <= 0
 mccormick1[0,7]: - u[0,7] + r[0,7] <= 0
 mccormick1[0,9]: - u[0,9] + r[0,9] <= 0
 mccormick1[0,10]: - u[0,10] + r[0,10] <= 0
 mccormick1[1,2]: - u[1,2] + r[1,2] <= 0
 mccormick1[1,5]: - u[1,5] + r[1,5] <= 0
 mccormick1[1,6]: - u[1,6] + r[1,6] <= 0
 mccormick1[1,7]: - u[1,7] + r[1,7] <= 0
 mccormick1[1,9]: - u[1,9] + r[1,9] <= 0
 mccormick1[2,0]: - u[2,0] + r[2,0] <= 0
 mccormick1[2,1]: - u[2,1] + r[2,1] <= 0
 mccormick1[2,3]: - u[2,3] + r[2,3] <= 0
 mccormick1[2,4]: - u[2,4] + r[2,4] <= 0
 mccormick1[2,5]: - u[2,5] + r[2,5] <= 0
 mccormick1[2,6]: - u[2,6] + r[2,6] <= 0
 mccormick1[2,7]: - u[2,7] + r[2,7] <= 0
 mccormick1[2,8]: - u[2,8] + r[2,8] <= 0
 mccormick1[2,9]: - u[2,9] + r[2,9] <= 0
 mccormick1[2,10]: - u[2,10] + r[2,10] <= 0
 mccormick1[3,0]: - u[3,0] + r[3,0] <= 0
 mccormick1[3,2]: - u[3,2] + r[3,2] <= 0
 mccormick1[3,4]: - u[3,4] + r[3,4] <= 0
 mccormick1[3,5]: - u[3,5] + r[3,5] <= 0
 mccormick1[3,6]: - u[3,6] + r[3,6] <= 0
 mccormick1[3,7]: - u[3,7] + r[3,7] <= 0
 mccormick1[3,9]: - u[3,9] + r[3,9] <= 0
 mccormick1[3,10]: - u[3,10] + r[3,10] <= 0
 mccormick1[4,0]: - u[4,0] + r[4,0] <= 0
 mccormick1[4,2]: - u[4,2] + r[4,2] <= 0
 mccormick1[4,3]: - u[4,3] + r[4,3] <= 0
 mccormick1[4,5]: - u[4,5] + r[4,5] <= 0
 mccormick1[4,6]: - u[4,6] + r[4,6] <= 0
 mccormick1[4,7]: - u[4,7] + r[4,7] <= 0
 mccormick1[4,8]: - u[4,8] + r[4,8] <= 0
 mccormick1[4,9]: - u[4,9] + r[4,9] <= 0
 mccormick1[4,10]: - u[4,10] + r[4,10] <= 0
 mccormick1[5,0]: - u[5,0] + r[5,0] <= 0
 mccormick1[5,1]: - u[5,1] + r[5,1] <= 0
 mccormick1[5,2]: - u[5,2] + r[5,2] <= 0
 mccormick1[5,3]: - u[5,3] + r[5,3] <= 0
 mccormick1[5,4]: - u[5,4] + r[5,4] <= 0
 mccormick1[5,6]: - u[5,6] + r[5,6] <= 0
 mccormick1[5,7]: - u[5,7] + r[5,7] <= 0
 mccormick1[5,9]: - u[5,9] + r[5,9] <= 0
 mccormick1[5,10]: - u[5,10] + r[5,10] <= 0
 mccormick1[6,0]: - u[6,0] + r[6,0] <= 0
 mccormick1[6,1]: - u[6,1] + r[6,1] <= 0
 mccormick1[6,2]: - u[6,2] + r[6,2] <= 0
 mccormick1[6,3]: - u[6,3] + r[6,3] <= 0
 mccormick1[6,4]: - u[6,4] + r[6,4] <= 0
 mccormick1[6,5]: - u[6,5] + r[6,5] <= 0
 mccormick1[6,8]: - u[6,8] + r[6,8] <= 0
 mccormick1[6,9]: - u[6,9] + r[6,9] <= 0
 mccormick1[6,10]: - u[6,10] + r[6,10] <= 0
 mccormick1[7,0]: - u[7,0] + r[7,0] <= 0
 mccormick1[7,1]: - u[7,1] + r[7,1] <= 0
 mccormick1[7,2]: - u[7,2] + r[7,2] <= 0
 mccormick1[7,3]: - u[7,3] + r[7,3] <= 0
 mccormick1[7,4]: - u[7,4] + r[7,4] <= 0
 mccormick1[7,5]: - u[7,5] + r[7,5] <= 0
 mccormick1[7,9]: - u[7,9] + r[7,9] <= 0
 mccormick1[8,2]: - u[8,2] + r[8,2] <= 0
 mccormick1[8,4]: - u[8,4] + r[8,4] <= 0
 mccormick1[8,6]: - u[8,6] + r[8,6] <= 0
 mccormick1[8,9]: - u[8,9] + r[8,9] <= 0
 mccormick1[8,10]: - u[8,10] + r[8,10] <= 0
 mccormick1[9,0]: - u[9,0] + r[9,0] <= 0
 mccormick1[9,1]: - u[9,1] + r[9,1] <= 0
 mccormick1[9,2]: - u[9,2] + r[9,2] <= 0
 mccormick1[9,3]: - u[9,3] + r[9,3] <= 0
 mccormick1[9,4]: - u[9,4] + r[9,4] <= 0
 mccormick1[9,5]: - u[9,5] + r[9,5] <= 0
 mccormick1[9,6]: - u[9,6] + r[9,6] <= 0
 mccormick1[9,7]: - u[9,7] + r[9,7] <= 0
 mccormick1[9,8]: - u[9,8] + r[9,8] <= 0
 mccormick1[9,10]: - u[9,10] + r[9,10] <= 0
 mccormick1[10,0]: - u[10,0] + r[10,0] <= 0
 mccormick1[10,2]: - u[10,2] + r[10,2] <= 0
 mccormick1[10,3]: - u[10,3] + r[10,3] <= 0
 mccormick1[10,4]: - u[10,4] + r[10,4] <= 0
 mccormick1[10,5]: - u[10,5] + r[10,5] <= 0
 mccormick1[10,6]: - u[10,6] + r[10,6] <= 0
 mccormick1[10,8]: - u[10,8] + r[10,8] <= 0
 mccormick1[10,9]: - u[10,9] + r[10,9] <= 0
 mccormick2[0,2]: - y[0,2] + r[0,2] <= 0
 mccormick2[0,3]: - y[0,3] + r[0,3] <= 0
 mccormick2[0,4]: - y[0,4] + r[0,4] <= 0
 mccormick2[0,5]: - y[0,5] + r[0,5] <= 0
 mccormick2[0,6]: - y[0,6] + r[0,6] <= 0
 mccormick2[0,7]: - y[0,7] + r[0,7] <= 0
 mccormick2[0,9]: - y[0,9] + r[0,9] <= 0
 mccormick2[0,10]: - y[0,10] + r[0,10] <= 0
 mccormick2[1,2]: - y[1,2] + r[1,2] <= 0
 mccormick2[1,5]: - y[1,5] + r[1,5] <= 0
 mccormick2[1,6]: - y[1,6] + r[1,6] <= 0
 mccormick2[1,7]: - y[1,7] + r[1,7] <= 0
 mccormick2[1,9]: - y[1,9] + r[1,9] <= 0
 mccormick2[2,0]: - y[2,0] + r[2,0] <= 0
 mccormick2[2,1]: - y[2,1] + r[2,1] <= 0
 mccormick2[2,3]: - y[2,3] + r[2,3] <= 0
 mccormick2[2,4]: - y[2,4] + r[2,4] <= 0
 mccormick2[2,5]: - y[2,5] + r[2,5] <= 0
 mccormick2[2,6]: - y[2,6] + r[2,6] <= 0
 mccormick2[2,7]: - y[2,7] + r[2,7] <= 0
 mccormick2[2,8]: - y[2,8] + r[2,8] <= 0
 mccormick2[2,9]: - y[2,9] + r[2,9] <= 0
 mccormick2[2,10]: - y[2,10] + r[2,10] <= 0
 mccormick2[3,0]: - y[3,0] + r[3,0] <= 0
 mccormick2[3,2]: - y[3,2] + r[3,2] <= 0
 mccormick2[3,4]: - y[3,4] + r[3,4] <= 0
 mccormick2[3,5]: - y[3,5] + r[3,5] <= 0
 mccormick2[3,6]: - y[3,6] + r[3,6] <= 0
 mccormick2[3,7]: - y[3,7] + r[3,7] <= 0
 mccormick2[3,9]: - y[3,9] + r[3,9] <= 0
 mccormick2[3,10]: - y[3,10] + r[3,10] <= 0
 mccormick2[4,0]: - y[4,0] + r[4,0] <= 0
 mccormick2[4,2]: - y[4,2] + r[4,2] <= 0
 mccormick2[4,3]: - y[4,3] + r[4,3] <= 0
 mccormick2[4,5]: - y[4,5] + r[4,5] <= 0
 mccormick2[4,6]: - y[4,6] + r[4,6] <= 0
 mccormick2[4,7]: - y[4,7] + r[4,7] <= 0
 mccormick2[4,8]: - y[4,8] + r[4,8] <= 0
 mccormick2[4,9]: - y[4,9] + r[4,9] <= 0
 mccormick2[4,10]: - y[4,10] + r[4,10] <= 0
 mccormick2[5,0]: - y[5,0] + r[5,0] <= 0
 mccormick2[5,1]: - y[5,1] + r[5,1] <= 0
 mccormick2[5,2]: - y[5,2] + r[5,2] <= 0
 mccormick2[5,3]: - y[5,3] + r[5,3] <= 0
 mccormick2[5,4]: - y[5,4] + r[5,4] <= 0
 mccormick2[5,6]: - y[5,6] + r[5,6] <= 0
 mccormick2[5,7]: - y[5,7] + r[5,7] <= 0
 mccormick2[5,9]: - y[5,9] + r[5,9] <= 0
 mccormick2[5,10]: - y[5,10] + r[5,10] <= 0
 mccormick2[6,0]: - y[6,0] + r[6,0] <= 0
 mccormick2[6,1]: - y[6,1] + r[6,1] <= 0
 mccormick2[6,2]: - y[6,2] + r[6,2] <= 0
 mccormick2[6,3]: - y[6,3] + r[6,3] <= 0
 mccormick2[6,4]: - y[6,4] + r[6,4] <= 0
 mccormick2[6,5]: - y[6,5] + r[6,5] <= 0
 mccormick2[6,8]: - y[6,8] + r[6,8] <= 0
 mccormick2[6,9]: - y[6,9] + r[6,9] <= 0
 mccormick2[6,10]: - y[6,10] + r[6,10] <= 0
 mccormick2[7,0]: - y[7,0] + r[7,0] <= 0
 mccormick2[7,1]: - y[7,1] + r[7,1] <= 0
 mccormick2[7,2]: - y[7,2] + r[7,2] <= 0
 mccormick2[7,3]: - y[7,3] + r[7,3] <= 0
 mccormick2[7,4]: - y[7,4] + r[7,4] <= 0
 mccormick2[7,5]: - y[7,5] + r[7,5] <= 0
 mccormick2[7,9]: - y[7,9] + r[7,9] <= 0
 mccormick2[8,2]: - y[8,2] + r[8,2] <= 0
 mccormick2[8,4]: - y[8,4] + r[8,4] <= 0
 mccormick2[8,6]: - y[8,6] + r[8,6] <= 0
 mccormick2[8,9]: - y[8,9] + r[8,9] <= 0
 mccormick2[8,10]: - y[8,10] + r[8,10] <= 0
 mccormick2[9,0]: - y[9,0] + r[9,0] <= 0
 mccormick2[9,1]: - y[9,1] + r[9,1] <= 0
 mccormick2[9,2]: - y[9,2] + r[9,2] <= 0
 mccormick2[9,3]: - y[9,3] + r[9,3] <= 0
 mccormick2[9,4]: - y[9,4] + r[9,4] <= 0
 mccormick2[9,5]: - y[9,5] + r[9,5] <= 0
 mccormick2[9,6]: - y[9,6] + r[9,6] <= 0
 mccormick2[9,7]: - y[9,7] + r[9,7] <= 0
 mccormick2[9,8]: - y[9,8] + r[9,8] <= 0
 mccormick2[9,10]: - y[9,10] + r[9,10] <= 0
 mccormick2[10,0]: - y[10,0] + r[10,0] <= 0
 mccormick2[10,2]: - y[10,2] + r[10,2] <= 0
 mccormick2[10,3]: - y[10,3] + r[10,3] <= 0
 mccormick2[10,4]: - y[10,4] + r[10,4] <= 0
 mccormick2[10,5]: - y[10,5] + r[10,5] <= 0
 mccormick2[10,6]: - y[10,6] + r[10,6] <= 0
 mccormick2[10,8]: - y[10,8] + r[10,8] <= 0
 mccormick2[10,9]: - y[10,9] + r[10,9] <= 0
 mccormick3[0,2]: - y[0,2] - u[0,2] + r[0,2] >= -1
 mccormick3[0,3]: - y[0,3] - u[0,3] + r[0,3] >= -1
 mccormick3[0,4]: - y[0,4] - u[0,4] + r[0,4] >= -1
 mccormick3[0,5]: - y[0,5] - u[0,5] + r[0,5] >= -1
 mccormick3[0,6]: - y[0,6] - u[0,6] + r[0,6] >= -1
 mccormick3[0,7]: - y[0,7] - u[0,7] + r[0,7] >= -1
 mccormick3[0,9]: - y[0,9] - u[0,9] + r[0,9] >= -1
 mccormick3[0,10]: - y[0,10] - u[0,10] + r[0,10] >= -1
 mccormick3[1,2]: - y[1,2] - u[1,2] + r[1,2] >= -1
 mccormick3[1,5]: - y[1,5] - u[1,5] + r[1,5] >= -1
 mccormick3[1,6]: - y[1,6] - u[1,6] + r[1,6] >= -1
 mccormick3[1,7]: - y[1,7] - u[1,7] + r[1,7] >= -1
 mccormick3[1,9]: - y[1,9] - u[1,9] + r[1,9] >= -1
 mccormick3[2,0]: - y[2,0] - u[2,0] + r[2,0] >= -1
 mccormick3[2,1]: - y[2,1] - u[2,1] + r[2,1] >= -1
 mccormick3[2,3]: - y[2,3] - u[2,3] + r[2,3] >= -1
 mccormick3[2,4]: - y[2,4] - u[2,4] + r[2,4] >= -1
 mccormick3[2,5]: - y[2,5] - u[2,5] + r[2,5] >= -1
 mccormick3[2,6]: - y[2,6] - u[2,6] + r[2,6] >= -1
 mccormick3[2,7]: - y[2,7] - u[2,7] + r[2,7] >= -1
 mccormick3[2,8]: - y[2,8] - u[2,8] + r[2,8] >= -1
 mccormick3[2,9]: - y[2,9] - u[2,9] + r[2,9] >= -1
 mccormick3[2,10]: - y[2,10] - u[2,10] + r[2,10] >= -1
 mccormick3[3,0]: - y[3,0] - u[3,0] + r[3,0] >= -1
 mccormick3[3,2]: - y[3,2] - u[3,2] + r[3,2] >= -1
 mccormick3[3,4]: - y[3,4] - u[3,4] + r[3,4] >= -1
 mccormick3[3,5]: - y[3,5] - u[3,5] + r[3,5] >= -1
 mccormick3[3,6]: - y[3,6] - u[3,6] + r[3,6] >= -1
 mccormick3[3,7]: - y[3,7] - u[3,7] + r[3,7] >= -1
 mccormick3[3,9]: - y[3,9] - u[3,9] + r[3,9] >= -1
 mccormick3[3,10]: - y[3,10] - u[3,10] + r[3,10] >= -1
 mccormick3[4,0]: - y[4,0] - u[4,0] + r[4,0] >= -1
 mccormick3[4,2]: - y[4,2] - u[4,2] + r[4,2] >= -1
 mccormick3[4,3]: - y[4,3] - u[4,3] + r[4,3] >= -1
 mccormick3[4,5]: - y[4,5] - u[4,5] + r[4,5] >= -1
 mccormick3[4,6]: - y[4,6] - u[4,6] + r[4,6] >= -1
 mccormick3[4,7]: - y[4,7] - u[4,7] + r[4,7] >= -1
 mccormick3[4,8]: - y[4,8] - u[4,8] + r[4,8] >= -1
 mccormick3[4,9]: - y[4,9] - u[4,9] + r[4,9] >= -1
 mccormick3[4,10]: - y[4,10] - u[4,10] + r[4,10] >= -1
 mccormick3[5,0]: - y[5,0] - u[5,0] + r[5,0] >= -1
 mccormick3[5,1]: - y[5,1] - u[5,1] + r[5,1] >= -1
 mccormick3[5,2]: - y[5,2] - u[5,2] + r[5,2] >= -1
 mccormick3[5,3]: - y[5,3] - u[5,3] + r[5,3] >= -1
 mccormick3[5,4]: - y[5,4] - u[5,4] + r[5,4] >= -1
 mccormick3[5,6]: - y[5,6] - u[5,6] + r[5,6] >= -1
 mccormick3[5,7]: - y[5,7] - u[5,7] + r[5,7] >= -1
 mccormick3[5,9]: - y[5,9] - u[5,9] + r[5,9] >= -1
 mccormick3[5,10]: - y[5,10] - u[5,10] + r[5,10] >= -1
 mccormick3[6,0]: - y[6,0] - u[6,0] + r[6,0] >= -1
 mccormick3[6,1]: - y[6,1] - u[6,1] + r[6,1] >= -1
 mccormick3[6,2]: - y[6,2] - u[6,2] + r[6,2] >= -1
 mccormick3[6,3]: - y[6,3] - u[6,3] + r[6,3] >= -1
 mccormick3[6,4]: - y[6,4] - u[6,4] + r[6,4] >= -1
 mccormick3[6,5]: - y[6,5] - u[6,5] + r[6,5] >= -1
 mccormick3[6,8]: - y[6,8] - u[6,8] + r[6,8] >= -1
 mccormick3[6,9]: - y[6,9] - u[6,9] + r[6,9] >= -1
 mccormick3[6,10]: - y[6,10] - u[6,10] + r[6,10] >= -1
 mccormick3[7,0]: - y[7,0] - u[7,0] + r[7,0] >= -1
 mccormick3[7,1]: - y[7,1] - u[7,1] + r[7,1] >= -1
 mccormick3[7,2]: - y[7,2] - u[7,2] + r[7,2] >= -1
 mccormick3[7,3]: - y[7,3] - u[7,3] + r[7,3] >= -1
 mccormick3[7,4]: - y[7,4] - u[7,4] + r[7,4] >= -1
 mccormick3[7,5]: - y[7,5] - u[7,5] + r[7,5] >= -1
 mccormick3[7,9]: - y[7,9] - u[7,9] + r[7,9] >= -1
 mccormick3[8,2]: - y[8,2] - u[8,2] + r[8,2] >= -1
 mccormick3[8,4]: - y[8,4] - u[8,4] + r[8,4] >= -1
 mccormick3[8,6]: - y[8,6] - u[8,6] + r[8,6] >= -1
 mccormick3[8,9]: - y[8,9] - u[8,9] + r[8,9] >= -1
 mccormick3[8,10]: - y[8,10] - u[8,10] + r[8,10] >= -1
 mccormick3[9,0]: - y[9,0] - u[9,0] + r[9,0] >= -1
 mccormick3[9,1]: - y[9,1] - u[9,1] + r[9,1] >= -1
 mccormick3[9,2]: - y[9,2] - u[9,2] + r[9,2] >= -1
 mccormick3[9,3]: - y[9,3] - u[9,3] + r[9,3] >= -1
 mccormick3[9,4]: - y[9,4] - u[9,4] + r[9,4] >= -1
 mccormick3[9,5]: - y[9,5] - u[9,5] + r[9,5] >= -1
 mccormick3[9,6]: - y[9,6] - u[9,6] + r[9,6] >= -1
 mccormick3[9,7]: - y[9,7] - u[9,7] + r[9,7] >= -1
 mccormick3[9,8]: - y[9,8] - u[9,8] + r[9,8] >= -1
 mccormick3[9,10]: - y[9,10] - u[9,10] + r[9,10] >= -1
 mccormick3[10,0]: - y[10,0] - u[10,0] + r[10,0] >= -1
 mccormick3[10,2]: - y[10,2] - u[10,2] + r[10,2] >= -1
 mccormick3[10,3]: - y[10,3] - u[10,3] + r[10,3] >= -1
 mccormick3[10,4]: - y[10,4] - u[10,4] + r[10,4] >= -1
 mccormick3[10,5]: - y[10,5] - u[10,5] + r[10,5] >= -1
 mccormick3[10,6]: - y[10,6] - u[10,6] + r[10,6] >= -1
 mccormick3[10,8]: - y[10,8] - u[10,8] + r[10,8] >= -1
 mccormick3[10,9]: - y[10,9] - u[10,9] + r[10,9] >= -1
Bounds
Binaries
 y[0,2] y[0,3] y[0,4] y[0,5] y[0,6] y[0,7] y[0,9] y[0,10] y[1,2] y[1,5]
 y[1,6] y[1,7] y[1,9] y[2,0] y[2,1] y[2,3] y[2,4] y[2,5] y[2,6] y[2,7]
 y[2,8] y[2,9] y[2,10] y[3,0] y[3,2] y[3,4] y[3,5] y[3,6] y[3,7] y[3,9]
 y[3,10] y[4,0] y[4,2] y[4,3] y[4,5] y[4,6] y[4,7] y[4,8] y[4,9] y[4,10]
 y[5,0] y[5,1] y[5,2] y[5,3] y[5,4] y[5,6] y[5,7] y[5,9] y[5,10] y[6,0]
 y[6,1] y[6,2] y[6,3] y[6,4] y[6,5] y[6,8] y[6,9] y[6,10] y[7,0] y[7,1]
 y[7,2] y[7,3] y[7,4] y[7,5] y[7,9] y[8,2] y[8,4] y[8,6] y[8,9] y[8,10]
 y[9,0] y[9,1] y[9,2] y[9,3] y[9,4] y[9,5] y[9,6] y[9,7] y[9,8] y[9,10]
 y[10,0] y[10,2] y[10,3] y[10,4] y[10,5] y[10,6] y[10,8] y[10,9] u[0,2]
 u[0,3] u[0,4] u[0,5] u[0,6] u[0,7] u[0,9] u[0,10] u[1,2] u[1,5] u[1,6]
 u[1,7] u[1,9] u[2,0] u[2,1] u[2,3] u[2,4] u[2,5] u[2,6] u[2,7] u[2,8]
 u[2,9] u[2,10] u[3,0] u[3,2] u[3,4] u[3,5] u[3,6] u[3,7] u[3,9] u[3,10]
 u[4,0] u[4,2] u[4,3] u[4,5] u[4,6] u[4,7] u[4,8] u[4,9] u[4,10] u[5,0]
 u[5,1] u[5,2] u[5,3] u[5,4] u[5,6] u[5,7] u[5,9] u[5,10] u[6,0] u[6,1]
 u[6,2] u[6,3] u[6,4] u[6,5] u[6,8] u[6,9] u[6,10] u[7,0] u[7,1] u[7,2]
 u[7,3] u[7,4] u[7,5] u[7,9] u[8,2] u[8,4] u[8,6] u[8,9] u[8,10] u[9,0]
 u[9,1] u[9,2] u[9,3] u[9,4] u[9,5] u[9,6] u[9,7] u[9,8] u[9,10] u[10,0]
 u[10,2] u[10,3] u[10,4] u[10,5] u[10,6] u[10,8] u[10,9] r[0,2] r[0,3]
 r[0,4] r[0,5] r[0,6] r[0,7] r[0,9] r[0,10] r[1,2] r[1,5] r[1,6] r[1,7]
 r[1,9] r[2,0] r[2,1] r[2,3] r[2,4] r[2,5] r[2,6] r[2,7] r[2,8] r[2,9]
 r[2,10] r[3,0] r[3,2] r[3,4] r[3,5] r[3,6] r[3,7] r[3,9] r[3,10] r[4,0]
 r[4,2] r[4,3] r[4,5] r[4,6] r[4,7] r[4,8] r[4,9] r[4,10] r[5,0] r[5,1]
 r[5,2] r[5,3] r[5,4] r[5,6] r[5,7] r[5,9] r[5,10] r[6,0] r[6,1] r[6,2]
 r[6,3] r[6,4] r[6,5] r[6,8] r[6,9] r[6,10] r[7,0] r[7,1] r[7,2] r[7,3]
 r[7,4] r[7,5] r[7,9] r[8,2] r[8,4] r[8,6] r[8,9] r[8,10] r[9,0] r[9,1]
 r[9,2] r[9,3] r[9,4] r[9,5] r[9,6] r[9,7] r[9,8] r[9,10] r[10,0] r[10,2]
 r[10,3] r[10,4] r[10,5] r[10,6] r[10,8] r[10,9]
End
